coords = array2d(1..51, 1..2, [547, 754, 694, 107, 747, 530, 609, 79, 957, 815,
    945, 687, 98, 614, 704, 62, 414, 897, 636, 931, 88, 484, 754, 355,
    476, 303, 725, 953, 660, 720, 545, 180, 300, 707, 63, 746, 534,
    860, 586, 452, 210, 285, 980, 512, 542, 848, 983, 930, 7, 743,
    164, 519, 772, 631, 882, 944, 944, 962, 837, 912, 803, 806, 746,
    321, 552, 576, 214, 973, 31, 95, 674, 230, 738, 852, 912, 820,
    545, 287, 567, 586, 850, 461, 780, 434, 470, 611, 516, 493, 646,
    369, 415, 712, 796, 203, 677, 796, 26, 491, 813, 375, 650, 553]);

n = 51;

